7 
5 
4 
6 
5 
5 
6 
7 
2 
7 
4 
5 
5 
6 
2 
2 
3 
8 
4 
2 
5 
6 
2 
1 
14 
3 
2 
6 
4 
3 
5 
9 
7 
8 
6 
4 
6 
6 
2 
4 
13 
2 
2 
2 
5 
7 
4 
5 
6 
10 
4 
5 
5 
3 
5 
7 
9 
3 
5 
2 
4 
7 
8 
4 
3 
3 
2 
11 
6 
2 
2 
4 
4 
7 
6 
5 
4 
2 
1 
10 
4 
5 
5 
4 
2 
4 
4 
7 
3 
4 
1 
6 
2 
4 
5 
6 
6 
2 
13 
4 
